param set_len = 40;
param target_sum = 10325054141;
param values := [1] 965529151 [2] 207551181 [3] 753962970 [4] 287171204 [5] 868926098 [6] 694268216 [7] 450656256 [8] 984774084 [9] 101554930 [10] 329085414 [11] 783985025 [12] 971740633 [13] 505238212 [14] 292840565 [15] 680731226 [16] 42441897 [17] 245777716 [18] 889826063 [19] 790277520 [20] 549842671 [21] 669004685 [22] 483848993 [23] 722210940 [24] 410527171 [25] 673998910 [26] 736028674 [27] 156089417 [28] 950222155 [29] 984403157 [30] 87359403 [31] 529708282 [32] 803420938 [33] 257132510 [34] 518786827 [35] 628155161 [36] 42088815 [37] 503188072 [38] 222007460 [39] 503375123 [40] 478918052 ;
